\ LP format - for model browsing. Use MPS format to capture full model detail.
Maximize
  x0,1_2 + x0,1_23 + x0,1_28 + x0,1_29 + x0,1_32 + x0,1_35 + x0,1_42
   + x0,1_45 + x0,1_69 + x0,1_72 + x0,2_2 + x0,2_23 + x0,2_28 + x0,2_29
   + x0,2_32 + x0,2_35 + x0,2_42 + x0,2_45 + x0,2_69 + x0,2_72 + x0,3_2
   + x0,3_23 + x0,3_28 + x0,3_29 + x0,3_32 + x0,3_35 + x0,3_42 + x0,3_45
   + x0,3_69 + x0,3_72 + x0,4_2 + x0,4_23 + x0,4_28 + x0,4_29 + x0,4_32
   + x0,4_35 + x0,4_42 + x0,4_45 + x0,4_69 + x0,4_72 + x0,5_2 + x0,5_23
   + x0,5_28 + x0,5_29 + x0,5_32 + x0,5_35 + x0,5_42 + x0,5_45 + x0,5_69
   + x0,5_72 + x0,6_2 + x0,6_23 + x0,6_28 + x0,6_29 + x0,6_32 + x0,6_35
   + x0,6_42 + x0,6_45 + x0,6_69 + x0,6_72 + x0,7_2 + x0,7_23 + x0,7_28
   + x0,7_29 + x0,7_32 + x0,7_35 + x0,7_42 + x0,7_45 + x0,7_69 + x0,7_72
   + x1,2_2 + x1,2_23 + x1,2_28 + x1,2_29 + x1,2_32 + x1,2_35 + x1,2_42
   + x1,2_45 + x1,2_69 + x1,2_72 + x1,3_2 + x1,3_23 + x1,3_28 + x1,3_29
   + x1,3_32 + x1,3_35 + x1,3_42 + x1,3_45 + x1,3_69 + x1,3_72 + x1,4_2
   + x1,4_23 + x1,4_28 + x1,4_29 + x1,4_32 + x1,4_35 + x1,4_42 + x1,4_45
   + x1,4_69 + x1,4_72 + x1,5_2 + x1,5_23 + x1,5_28 + x1,5_29 + x1,5_32
   + x1,5_35 + x1,5_42 + x1,5_45 + x1,5_69 + x1,5_72 + x1,6_2 + x1,6_23
   + x1,6_28 + x1,6_29 + x1,6_32 + x1,6_35 + x1,6_42 + x1,6_45 + x1,6_69
   + x1,6_72 + x1,7_2 + x1,7_23 + x1,7_28 + x1,7_29 + x1,7_32 + x1,7_35
   + x1,7_42 + x1,7_45 + x1,7_69 + x1,7_72 + x2,3_2 + x2,3_23 + x2,3_28
   + x2,3_29 + x2,3_32 + x2,3_35 + x2,3_42 + x2,3_45 + x2,3_69 + x2,3_72
   + x2,4_2 + x2,4_23 + x2,4_28 + x2,4_29 + x2,4_32 + x2,4_35 + x2,4_42
   + x2,4_45 + x2,4_69 + x2,4_72 + x2,5_2 + x2,5_23 + x2,5_28 + x2,5_29
   + x2,5_32 + x2,5_35 + x2,5_42 + x2,5_45 + x2,5_69 + x2,5_72 + x2,6_2
   + x2,6_23 + x2,6_28 + x2,6_29 + x2,6_32 + x2,6_35 + x2,6_42 + x2,6_45
   + x2,6_69 + x2,6_72 + x2,7_2 + x2,7_23 + x2,7_28 + x2,7_29 + x2,7_32
   + x2,7_35 + x2,7_42 + x2,7_45 + x2,7_69 + x2,7_72 + x3,4_2 + x3,4_23
   + x3,4_28 + x3,4_29 + x3,4_32 + x3,4_35 + x3,4_42 + x3,4_45 + x3,4_69
   + x3,4_72 + x3,5_2 + x3,5_23 + x3,5_28 + x3,5_29 + x3,5_32 + x3,5_35
   + x3,5_42 + x3,5_45 + x3,5_69 + x3,5_72 + x3,6_2 + x3,6_23 + x3,6_28
   + x3,6_29 + x3,6_32 + x3,6_35 + x3,6_42 + x3,6_45 + x3,6_69 + x3,6_72
   + x3,7_2 + x3,7_23 + x3,7_28 + x3,7_29 + x3,7_32 + x3,7_35 + x3,7_42
   + x3,7_45 + x3,7_69 + x3,7_72 + x4,5_2 + x4,5_23 + x4,5_28 + x4,5_29
   + x4,5_32 + x4,5_35 + x4,5_42 + x4,5_45 + x4,5_69 + x4,5_72 + x4,6_2
   + x4,6_23 + x4,6_28 + x4,6_29 + x4,6_32 + x4,6_35 + x4,6_42 + x4,6_45
   + x4,6_69 + x4,6_72 + x4,7_2 + x4,7_23 + x4,7_28 + x4,7_29 + x4,7_32
   + x4,7_35 + x4,7_42 + x4,7_45 + x4,7_69 + x4,7_72 + x5,6_2 + x5,6_23
   + x5,6_28 + x5,6_29 + x5,6_32 + x5,6_35 + x5,6_42 + x5,6_45 + x5,6_69
   + x5,6_72 + x5,7_2 + x5,7_23 + x5,7_28 + x5,7_29 + x5,7_32 + x5,7_35
   + x5,7_42 + x5,7_45 + x5,7_69 + x5,7_72 + x6,7_2 + x6,7_23 + x6,7_28
   + x6,7_29 + x6,7_32 + x6,7_35 + x6,7_42 + x6,7_45 + x6,7_69 + x6,7_72
Subject To
 R0: x0,1_2 + x0,2_2 + x0,3_2 + x0,4_2 + x0,5_2 + x0,6_2 + x0,7_2 + x1,2_2
   + x1,3_2 + x1,4_2 + x1,5_2 + x1,6_2 + x1,7_2 + x2,3_2 + x2,4_2 + x2,5_2
   + x2,6_2 + x2,7_2 + x3,4_2 + x3,5_2 + x3,6_2 + x3,7_2 + x4,5_2 + x4,6_2
   + x4,7_2 + x5,6_2 + x5,7_2 + x6,7_2 <= 1
 R1: x0,1_23 + x0,2_23 + x0,3_23 + x0,4_23 + x0,5_23 + x0,6_23 + x0,7_23
   + x1,2_23 + x1,3_23 + x1,4_23 + x1,5_23 + x1,6_23 + x1,7_23 + x2,3_23
   + x2,4_23 + x2,5_23 + x2,6_23 + x2,7_23 + x3,4_23 + x3,5_23 + x3,6_23
   + x3,7_23 + x4,5_23 + x4,6_23 + x4,7_23 + x5,6_23 + x5,7_23 + x6,7_23
   <= 1
 R2: x0,1_28 + x0,2_28 + x0,3_28 + x0,4_28 + x0,5_28 + x0,6_28 + x0,7_28
   + x1,2_28 + x1,3_28 + x1,4_28 + x1,5_28 + x1,6_28 + x1,7_28 + x2,3_28
   + x2,4_28 + x2,5_28 + x2,6_28 + x2,7_28 + x3,4_28 + x3,5_28 + x3,6_28
   + x3,7_28 + x4,5_28 + x4,6_28 + x4,7_28 + x5,6_28 + x5,7_28 + x6,7_28
   <= 1
 R3: x0,1_29 + x0,2_29 + x0,3_29 + x0,4_29 + x0,5_29 + x0,6_29 + x0,7_29
   + x1,2_29 + x1,3_29 + x1,4_29 + x1,5_29 + x1,6_29 + x1,7_29 + x2,3_29
   + x2,4_29 + x2,5_29 + x2,6_29 + x2,7_29 + x3,4_29 + x3,5_29 + x3,6_29
   + x3,7_29 + x4,5_29 + x4,6_29 + x4,7_29 + x5,6_29 + x5,7_29 + x6,7_29
   <= 1
 R4: x0,1_32 + x0,2_32 + x0,3_32 + x0,4_32 + x0,5_32 + x0,6_32 + x0,7_32
   + x1,2_32 + x1,3_32 + x1,4_32 + x1,5_32 + x1,6_32 + x1,7_32 + x2,3_32
   + x2,4_32 + x2,5_32 + x2,6_32 + x2,7_32 + x3,4_32 + x3,5_32 + x3,6_32
   + x3,7_32 + x4,5_32 + x4,6_32 + x4,7_32 + x5,6_32 + x5,7_32 + x6,7_32
   <= 1
 R5: x0,1_35 + x0,2_35 + x0,3_35 + x0,4_35 + x0,5_35 + x0,6_35 + x0,7_35
   + x1,2_35 + x1,3_35 + x1,4_35 + x1,5_35 + x1,6_35 + x1,7_35 + x2,3_35
   + x2,4_35 + x2,5_35 + x2,6_35 + x2,7_35 + x3,4_35 + x3,5_35 + x3,6_35
   + x3,7_35 + x4,5_35 + x4,6_35 + x4,7_35 + x5,6_35 + x5,7_35 + x6,7_35
   <= 1
 R6: x0,1_42 + x0,2_42 + x0,3_42 + x0,4_42 + x0,5_42 + x0,6_42 + x0,7_42
   + x1,2_42 + x1,3_42 + x1,4_42 + x1,5_42 + x1,6_42 + x1,7_42 + x2,3_42
   + x2,4_42 + x2,5_42 + x2,6_42 + x2,7_42 + x3,4_42 + x3,5_42 + x3,6_42
   + x3,7_42 + x4,5_42 + x4,6_42 + x4,7_42 + x5,6_42 + x5,7_42 + x6,7_42
   <= 1
 R7: x0,1_45 + x0,2_45 + x0,3_45 + x0,4_45 + x0,5_45 + x0,6_45 + x0,7_45
   + x1,2_45 + x1,3_45 + x1,4_45 + x1,5_45 + x1,6_45 + x1,7_45 + x2,3_45
   + x2,4_45 + x2,5_45 + x2,6_45 + x2,7_45 + x3,4_45 + x3,5_45 + x3,6_45
   + x3,7_45 + x4,5_45 + x4,6_45 + x4,7_45 + x5,6_45 + x5,7_45 + x6,7_45
   <= 1
 R8: x0,1_69 + x0,2_69 + x0,3_69 + x0,4_69 + x0,5_69 + x0,6_69 + x0,7_69
   + x1,2_69 + x1,3_69 + x1,4_69 + x1,5_69 + x1,6_69 + x1,7_69 + x2,3_69
   + x2,4_69 + x2,5_69 + x2,6_69 + x2,7_69 + x3,4_69 + x3,5_69 + x3,6_69
   + x3,7_69 + x4,5_69 + x4,6_69 + x4,7_69 + x5,6_69 + x5,7_69 + x6,7_69
   <= 1
 R9: x0,1_72 + x0,2_72 + x0,3_72 + x0,4_72 + x0,5_72 + x0,6_72 + x0,7_72
   + x1,2_72 + x1,3_72 + x1,4_72 + x1,5_72 + x1,6_72 + x1,7_72 + x2,3_72
   + x2,4_72 + x2,5_72 + x2,6_72 + x2,7_72 + x3,4_72 + x3,5_72 + x3,6_72
   + x3,7_72 + x4,5_72 + x4,6_72 + x4,7_72 + x5,6_72 + x5,7_72 + x6,7_72
   <= 1
 R10: x0,1_2 + x0,1_23 + x0,1_28 + x0,1_29 + x0,1_32 + x0,1_35 + x0,1_42
   + x0,1_45 + x0,1_69 + x0,1_72 <= 1
 R11: x0,2_2 + x0,2_23 + x0,2_28 + x0,2_29 + x0,2_32 + x0,2_35 + x0,2_42
   + x0,2_45 + x0,2_69 + x0,2_72 <= 1
 R12: x0,3_2 + x0,3_23 + x0,3_28 + x0,3_29 + x0,3_32 + x0,3_35 + x0,3_42
   + x0,3_45 + x0,3_69 + x0,3_72 <= 1
 R13: x0,4_2 + x0,4_23 + x0,4_28 + x0,4_29 + x0,4_32 + x0,4_35 + x0,4_42
   + x0,4_45 + x0,4_69 + x0,4_72 <= 1
 R14: x0,5_2 + x0,5_23 + x0,5_28 + x0,5_29 + x0,5_32 + x0,5_35 + x0,5_42
   + x0,5_45 + x0,5_69 + x0,5_72 <= 1
 R15: x0,6_2 + x0,6_23 + x0,6_28 + x0,6_29 + x0,6_32 + x0,6_35 + x0,6_42
   + x0,6_45 + x0,6_69 + x0,6_72 <= 1
 R16: x0,7_2 + x0,7_23 + x0,7_28 + x0,7_29 + x0,7_32 + x0,7_35 + x0,7_42
   + x0,7_45 + x0,7_69 + x0,7_72 <= 1
 R17: x1,2_2 + x1,2_23 + x1,2_28 + x1,2_29 + x1,2_32 + x1,2_35 + x1,2_42
   + x1,2_45 + x1,2_69 + x1,2_72 <= 1
 R18: x1,3_2 + x1,3_23 + x1,3_28 + x1,3_29 + x1,3_32 + x1,3_35 + x1,3_42
   + x1,3_45 + x1,3_69 + x1,3_72 <= 1
 R19: x1,4_2 + x1,4_23 + x1,4_28 + x1,4_29 + x1,4_32 + x1,4_35 + x1,4_42
   + x1,4_45 + x1,4_69 + x1,4_72 <= 1
 R20: x1,5_2 + x1,5_23 + x1,5_28 + x1,5_29 + x1,5_32 + x1,5_35 + x1,5_42
   + x1,5_45 + x1,5_69 + x1,5_72 <= 1
 R21: x1,6_2 + x1,6_23 + x1,6_28 + x1,6_29 + x1,6_32 + x1,6_35 + x1,6_42
   + x1,6_45 + x1,6_69 + x1,6_72 <= 1
 R22: x1,7_2 + x1,7_23 + x1,7_28 + x1,7_29 + x1,7_32 + x1,7_35 + x1,7_42
   + x1,7_45 + x1,7_69 + x1,7_72 <= 1
 R23: x2,3_2 + x2,3_23 + x2,3_28 + x2,3_29 + x2,3_32 + x2,3_35 + x2,3_42
   + x2,3_45 + x2,3_69 + x2,3_72 <= 1
 R24: x2,4_2 + x2,4_23 + x2,4_28 + x2,4_29 + x2,4_32 + x2,4_35 + x2,4_42
   + x2,4_45 + x2,4_69 + x2,4_72 <= 1
 R25: x2,5_2 + x2,5_23 + x2,5_28 + x2,5_29 + x2,5_32 + x2,5_35 + x2,5_42
   + x2,5_45 + x2,5_69 + x2,5_72 <= 1
 R26: x2,6_2 + x2,6_23 + x2,6_28 + x2,6_29 + x2,6_32 + x2,6_35 + x2,6_42
   + x2,6_45 + x2,6_69 + x2,6_72 <= 1
 R27: x2,7_2 + x2,7_23 + x2,7_28 + x2,7_29 + x2,7_32 + x2,7_35 + x2,7_42
   + x2,7_45 + x2,7_69 + x2,7_72 <= 1
 R28: x3,4_2 + x3,4_23 + x3,4_28 + x3,4_29 + x3,4_32 + x3,4_35 + x3,4_42
   + x3,4_45 + x3,4_69 + x3,4_72 <= 1
 R29: x3,5_2 + x3,5_23 + x3,5_28 + x3,5_29 + x3,5_32 + x3,5_35 + x3,5_42
   + x3,5_45 + x3,5_69 + x3,5_72 <= 1
 R30: x3,6_2 + x3,6_23 + x3,6_28 + x3,6_29 + x3,6_32 + x3,6_35 + x3,6_42
   + x3,6_45 + x3,6_69 + x3,6_72 <= 1
 R31: x3,7_2 + x3,7_23 + x3,7_28 + x3,7_29 + x3,7_32 + x3,7_35 + x3,7_42
   + x3,7_45 + x3,7_69 + x3,7_72 <= 1
 R32: x4,5_2 + x4,5_23 + x4,5_28 + x4,5_29 + x4,5_32 + x4,5_35 + x4,5_42
   + x4,5_45 + x4,5_69 + x4,5_72 <= 1
 R33: x4,6_2 + x4,6_23 + x4,6_28 + x4,6_29 + x4,6_32 + x4,6_35 + x4,6_42
   + x4,6_45 + x4,6_69 + x4,6_72 <= 1
 R34: x4,7_2 + x4,7_23 + x4,7_28 + x4,7_29 + x4,7_32 + x4,7_35 + x4,7_42
   + x4,7_45 + x4,7_69 + x4,7_72 <= 1
 R35: x5,6_2 + x5,6_23 + x5,6_28 + x5,6_29 + x5,6_32 + x5,6_35 + x5,6_42
   + x5,6_45 + x5,6_69 + x5,6_72 <= 1
 R36: x5,7_2 + x5,7_23 + x5,7_28 + x5,7_29 + x5,7_32 + x5,7_35 + x5,7_42
   + x5,7_45 + x5,7_69 + x5,7_72 <= 1
 R37: x6,7_2 + x6,7_23 + x6,7_28 + x6,7_29 + x6,7_32 + x6,7_35 + x6,7_42
   + x6,7_45 + x6,7_69 + x6,7_72 <= 1
 R38: p0 - p1 <= -1
 R39: - 2 x0,1_2 - p0 + p1 >= 0
 R40: 377 x0,1_2 - p0 + p1 <= 379
 R41: - 23 x0,1_23 - p0 + p1 >= 0
 R42: 377 x0,1_23 - p0 + p1 <= 400
 R43: - 28 x0,1_28 - p0 + p1 >= 0
 R44: 377 x0,1_28 - p0 + p1 <= 405
 R45: - 29 x0,1_29 - p0 + p1 >= 0
 R46: 377 x0,1_29 - p0 + p1 <= 406
 R47: - 32 x0,1_32 - p0 + p1 >= 0
 R48: 377 x0,1_32 - p0 + p1 <= 409
 R49: - 35 x0,1_35 - p0 + p1 >= 0
 R50: 377 x0,1_35 - p0 + p1 <= 412
 R51: - 42 x0,1_42 - p0 + p1 >= 0
 R52: 377 x0,1_42 - p0 + p1 <= 419
 R53: - 45 x0,1_45 - p0 + p1 >= 0
 R54: 377 x0,1_45 - p0 + p1 <= 422
 R55: - 69 x0,1_69 - p0 + p1 >= 0
 R56: 377 x0,1_69 - p0 + p1 <= 446
 R57: - 72 x0,1_72 - p0 + p1 >= 0
 R58: 377 x0,1_72 - p0 + p1 <= 449
 R59: p0 - p2 <= -1
 R60: - 2 x0,2_2 - p0 + p2 >= 0
 R61: 377 x0,2_2 - p0 + p2 <= 379
 R62: - 23 x0,2_23 - p0 + p2 >= 0
 R63: 377 x0,2_23 - p0 + p2 <= 400
 R64: - 28 x0,2_28 - p0 + p2 >= 0
 R65: 377 x0,2_28 - p0 + p2 <= 405
 R66: - 29 x0,2_29 - p0 + p2 >= 0
 R67: 377 x0,2_29 - p0 + p2 <= 406
 R68: - 32 x0,2_32 - p0 + p2 >= 0
 R69: 377 x0,2_32 - p0 + p2 <= 409
 R70: - 35 x0,2_35 - p0 + p2 >= 0
 R71: 377 x0,2_35 - p0 + p2 <= 412
 R72: - 42 x0,2_42 - p0 + p2 >= 0
 R73: 377 x0,2_42 - p0 + p2 <= 419
 R74: - 45 x0,2_45 - p0 + p2 >= 0
 R75: 377 x0,2_45 - p0 + p2 <= 422
 R76: - 69 x0,2_69 - p0 + p2 >= 0
 R77: 377 x0,2_69 - p0 + p2 <= 446
 R78: - 72 x0,2_72 - p0 + p2 >= 0
 R79: 377 x0,2_72 - p0 + p2 <= 449
 R80: p0 - p3 <= -1
 R81: - 2 x0,3_2 - p0 + p3 >= 0
 R82: 377 x0,3_2 - p0 + p3 <= 379
 R83: - 23 x0,3_23 - p0 + p3 >= 0
 R84: 377 x0,3_23 - p0 + p3 <= 400
 R85: - 28 x0,3_28 - p0 + p3 >= 0
 R86: 377 x0,3_28 - p0 + p3 <= 405
 R87: - 29 x0,3_29 - p0 + p3 >= 0
 R88: 377 x0,3_29 - p0 + p3 <= 406
 R89: - 32 x0,3_32 - p0 + p3 >= 0
 R90: 377 x0,3_32 - p0 + p3 <= 409
 R91: - 35 x0,3_35 - p0 + p3 >= 0
 R92: 377 x0,3_35 - p0 + p3 <= 412
 R93: - 42 x0,3_42 - p0 + p3 >= 0
 R94: 377 x0,3_42 - p0 + p3 <= 419
 R95: - 45 x0,3_45 - p0 + p3 >= 0
 R96: 377 x0,3_45 - p0 + p3 <= 422
 R97: - 69 x0,3_69 - p0 + p3 >= 0
 R98: 377 x0,3_69 - p0 + p3 <= 446
 R99: - 72 x0,3_72 - p0 + p3 >= 0
 R100: 377 x0,3_72 - p0 + p3 <= 449
 R101: p0 - p4 <= -1
 R102: - 2 x0,4_2 - p0 + p4 >= 0
 R103: 377 x0,4_2 - p0 + p4 <= 379
 R104: - 23 x0,4_23 - p0 + p4 >= 0
 R105: 377 x0,4_23 - p0 + p4 <= 400
 R106: - 28 x0,4_28 - p0 + p4 >= 0
 R107: 377 x0,4_28 - p0 + p4 <= 405
 R108: - 29 x0,4_29 - p0 + p4 >= 0
 R109: 377 x0,4_29 - p0 + p4 <= 406
 R110: - 32 x0,4_32 - p0 + p4 >= 0
 R111: 377 x0,4_32 - p0 + p4 <= 409
 R112: - 35 x0,4_35 - p0 + p4 >= 0
 R113: 377 x0,4_35 - p0 + p4 <= 412
 R114: - 42 x0,4_42 - p0 + p4 >= 0
 R115: 377 x0,4_42 - p0 + p4 <= 419
 R116: - 45 x0,4_45 - p0 + p4 >= 0
 R117: 377 x0,4_45 - p0 + p4 <= 422
 R118: - 69 x0,4_69 - p0 + p4 >= 0
 R119: 377 x0,4_69 - p0 + p4 <= 446
 R120: - 72 x0,4_72 - p0 + p4 >= 0
 R121: 377 x0,4_72 - p0 + p4 <= 449
 R122: p0 - p5 <= -1
 R123: - 2 x0,5_2 - p0 + p5 >= 0
 R124: 377 x0,5_2 - p0 + p5 <= 379
 R125: - 23 x0,5_23 - p0 + p5 >= 0
 R126: 377 x0,5_23 - p0 + p5 <= 400
 R127: - 28 x0,5_28 - p0 + p5 >= 0
 R128: 377 x0,5_28 - p0 + p5 <= 405
 R129: - 29 x0,5_29 - p0 + p5 >= 0
 R130: 377 x0,5_29 - p0 + p5 <= 406
 R131: - 32 x0,5_32 - p0 + p5 >= 0
 R132: 377 x0,5_32 - p0 + p5 <= 409
 R133: - 35 x0,5_35 - p0 + p5 >= 0
 R134: 377 x0,5_35 - p0 + p5 <= 412
 R135: - 42 x0,5_42 - p0 + p5 >= 0
 R136: 377 x0,5_42 - p0 + p5 <= 419
 R137: - 45 x0,5_45 - p0 + p5 >= 0
 R138: 377 x0,5_45 - p0 + p5 <= 422
 R139: - 69 x0,5_69 - p0 + p5 >= 0
 R140: 377 x0,5_69 - p0 + p5 <= 446
 R141: - 72 x0,5_72 - p0 + p5 >= 0
 R142: 377 x0,5_72 - p0 + p5 <= 449
 R143: p0 - p6 <= -1
 R144: - 2 x0,6_2 - p0 + p6 >= 0
 R145: 377 x0,6_2 - p0 + p6 <= 379
 R146: - 23 x0,6_23 - p0 + p6 >= 0
 R147: 377 x0,6_23 - p0 + p6 <= 400
 R148: - 28 x0,6_28 - p0 + p6 >= 0
 R149: 377 x0,6_28 - p0 + p6 <= 405
 R150: - 29 x0,6_29 - p0 + p6 >= 0
 R151: 377 x0,6_29 - p0 + p6 <= 406
 R152: - 32 x0,6_32 - p0 + p6 >= 0
 R153: 377 x0,6_32 - p0 + p6 <= 409
 R154: - 35 x0,6_35 - p0 + p6 >= 0
 R155: 377 x0,6_35 - p0 + p6 <= 412
 R156: - 42 x0,6_42 - p0 + p6 >= 0
 R157: 377 x0,6_42 - p0 + p6 <= 419
 R158: - 45 x0,6_45 - p0 + p6 >= 0
 R159: 377 x0,6_45 - p0 + p6 <= 422
 R160: - 69 x0,6_69 - p0 + p6 >= 0
 R161: 377 x0,6_69 - p0 + p6 <= 446
 R162: - 72 x0,6_72 - p0 + p6 >= 0
 R163: 377 x0,6_72 - p0 + p6 <= 449
 R164: p0 - p7 <= -1
 R165: - 2 x0,7_2 - p0 + p7 >= 0
 R166: 377 x0,7_2 - p0 + p7 <= 379
 R167: - 23 x0,7_23 - p0 + p7 >= 0
 R168: 377 x0,7_23 - p0 + p7 <= 400
 R169: - 28 x0,7_28 - p0 + p7 >= 0
 R170: 377 x0,7_28 - p0 + p7 <= 405
 R171: - 29 x0,7_29 - p0 + p7 >= 0
 R172: 377 x0,7_29 - p0 + p7 <= 406
 R173: - 32 x0,7_32 - p0 + p7 >= 0
 R174: 377 x0,7_32 - p0 + p7 <= 409
 R175: - 35 x0,7_35 - p0 + p7 >= 0
 R176: 377 x0,7_35 - p0 + p7 <= 412
 R177: - 42 x0,7_42 - p0 + p7 >= 0
 R178: 377 x0,7_42 - p0 + p7 <= 419
 R179: - 45 x0,7_45 - p0 + p7 >= 0
 R180: 377 x0,7_45 - p0 + p7 <= 422
 R181: - 69 x0,7_69 - p0 + p7 >= 0
 R182: 377 x0,7_69 - p0 + p7 <= 446
 R183: - 72 x0,7_72 - p0 + p7 >= 0
 R184: 377 x0,7_72 - p0 + p7 <= 449
 R185: p1 - p2 <= -1
 R186: - 2 x1,2_2 - p1 + p2 >= 0
 R187: 377 x1,2_2 - p1 + p2 <= 379
 R188: - 23 x1,2_23 - p1 + p2 >= 0
 R189: 377 x1,2_23 - p1 + p2 <= 400
 R190: - 28 x1,2_28 - p1 + p2 >= 0
 R191: 377 x1,2_28 - p1 + p2 <= 405
 R192: - 29 x1,2_29 - p1 + p2 >= 0
 R193: 377 x1,2_29 - p1 + p2 <= 406
 R194: - 32 x1,2_32 - p1 + p2 >= 0
 R195: 377 x1,2_32 - p1 + p2 <= 409
 R196: - 35 x1,2_35 - p1 + p2 >= 0
 R197: 377 x1,2_35 - p1 + p2 <= 412
 R198: - 42 x1,2_42 - p1 + p2 >= 0
 R199: 377 x1,2_42 - p1 + p2 <= 419
 R200: - 45 x1,2_45 - p1 + p2 >= 0
 R201: 377 x1,2_45 - p1 + p2 <= 422
 R202: - 69 x1,2_69 - p1 + p2 >= 0
 R203: 377 x1,2_69 - p1 + p2 <= 446
 R204: - 72 x1,2_72 - p1 + p2 >= 0
 R205: 377 x1,2_72 - p1 + p2 <= 449
 R206: p1 - p3 <= -1
 R207: - 2 x1,3_2 - p1 + p3 >= 0
 R208: 377 x1,3_2 - p1 + p3 <= 379
 R209: - 23 x1,3_23 - p1 + p3 >= 0
 R210: 377 x1,3_23 - p1 + p3 <= 400
 R211: - 28 x1,3_28 - p1 + p3 >= 0
 R212: 377 x1,3_28 - p1 + p3 <= 405
 R213: - 29 x1,3_29 - p1 + p3 >= 0
 R214: 377 x1,3_29 - p1 + p3 <= 406
 R215: - 32 x1,3_32 - p1 + p3 >= 0
 R216: 377 x1,3_32 - p1 + p3 <= 409
 R217: - 35 x1,3_35 - p1 + p3 >= 0
 R218: 377 x1,3_35 - p1 + p3 <= 412
 R219: - 42 x1,3_42 - p1 + p3 >= 0
 R220: 377 x1,3_42 - p1 + p3 <= 419
 R221: - 45 x1,3_45 - p1 + p3 >= 0
 R222: 377 x1,3_45 - p1 + p3 <= 422
 R223: - 69 x1,3_69 - p1 + p3 >= 0
 R224: 377 x1,3_69 - p1 + p3 <= 446
 R225: - 72 x1,3_72 - p1 + p3 >= 0
 R226: 377 x1,3_72 - p1 + p3 <= 449
 R227: p1 - p4 <= -1
 R228: - 2 x1,4_2 - p1 + p4 >= 0
 R229: 377 x1,4_2 - p1 + p4 <= 379
 R230: - 23 x1,4_23 - p1 + p4 >= 0
 R231: 377 x1,4_23 - p1 + p4 <= 400
 R232: - 28 x1,4_28 - p1 + p4 >= 0
 R233: 377 x1,4_28 - p1 + p4 <= 405
 R234: - 29 x1,4_29 - p1 + p4 >= 0
 R235: 377 x1,4_29 - p1 + p4 <= 406
 R236: - 32 x1,4_32 - p1 + p4 >= 0
 R237: 377 x1,4_32 - p1 + p4 <= 409
 R238: - 35 x1,4_35 - p1 + p4 >= 0
 R239: 377 x1,4_35 - p1 + p4 <= 412
 R240: - 42 x1,4_42 - p1 + p4 >= 0
 R241: 377 x1,4_42 - p1 + p4 <= 419
 R242: - 45 x1,4_45 - p1 + p4 >= 0
 R243: 377 x1,4_45 - p1 + p4 <= 422
 R244: - 69 x1,4_69 - p1 + p4 >= 0
 R245: 377 x1,4_69 - p1 + p4 <= 446
 R246: - 72 x1,4_72 - p1 + p4 >= 0
 R247: 377 x1,4_72 - p1 + p4 <= 449
 R248: p1 - p5 <= -1
 R249: - 2 x1,5_2 - p1 + p5 >= 0
 R250: 377 x1,5_2 - p1 + p5 <= 379
 R251: - 23 x1,5_23 - p1 + p5 >= 0
 R252: 377 x1,5_23 - p1 + p5 <= 400
 R253: - 28 x1,5_28 - p1 + p5 >= 0
 R254: 377 x1,5_28 - p1 + p5 <= 405
 R255: - 29 x1,5_29 - p1 + p5 >= 0
 R256: 377 x1,5_29 - p1 + p5 <= 406
 R257: - 32 x1,5_32 - p1 + p5 >= 0
 R258: 377 x1,5_32 - p1 + p5 <= 409
 R259: - 35 x1,5_35 - p1 + p5 >= 0
 R260: 377 x1,5_35 - p1 + p5 <= 412
 R261: - 42 x1,5_42 - p1 + p5 >= 0
 R262: 377 x1,5_42 - p1 + p5 <= 419
 R263: - 45 x1,5_45 - p1 + p5 >= 0
 R264: 377 x1,5_45 - p1 + p5 <= 422
 R265: - 69 x1,5_69 - p1 + p5 >= 0
 R266: 377 x1,5_69 - p1 + p5 <= 446
 R267: - 72 x1,5_72 - p1 + p5 >= 0
 R268: 377 x1,5_72 - p1 + p5 <= 449
 R269: p1 - p6 <= -1
 R270: - 2 x1,6_2 - p1 + p6 >= 0
 R271: 377 x1,6_2 - p1 + p6 <= 379
 R272: - 23 x1,6_23 - p1 + p6 >= 0
 R273: 377 x1,6_23 - p1 + p6 <= 400
 R274: - 28 x1,6_28 - p1 + p6 >= 0
 R275: 377 x1,6_28 - p1 + p6 <= 405
 R276: - 29 x1,6_29 - p1 + p6 >= 0
 R277: 377 x1,6_29 - p1 + p6 <= 406
 R278: - 32 x1,6_32 - p1 + p6 >= 0
 R279: 377 x1,6_32 - p1 + p6 <= 409
 R280: - 35 x1,6_35 - p1 + p6 >= 0
 R281: 377 x1,6_35 - p1 + p6 <= 412
 R282: - 42 x1,6_42 - p1 + p6 >= 0
 R283: 377 x1,6_42 - p1 + p6 <= 419
 R284: - 45 x1,6_45 - p1 + p6 >= 0
 R285: 377 x1,6_45 - p1 + p6 <= 422
 R286: - 69 x1,6_69 - p1 + p6 >= 0
 R287: 377 x1,6_69 - p1 + p6 <= 446
 R288: - 72 x1,6_72 - p1 + p6 >= 0
 R289: 377 x1,6_72 - p1 + p6 <= 449
 R290: p1 - p7 <= -1
 R291: - 2 x1,7_2 - p1 + p7 >= 0
 R292: 377 x1,7_2 - p1 + p7 <= 379
 R293: - 23 x1,7_23 - p1 + p7 >= 0
 R294: 377 x1,7_23 - p1 + p7 <= 400
 R295: - 28 x1,7_28 - p1 + p7 >= 0
 R296: 377 x1,7_28 - p1 + p7 <= 405
 R297: - 29 x1,7_29 - p1 + p7 >= 0
 R298: 377 x1,7_29 - p1 + p7 <= 406
 R299: - 32 x1,7_32 - p1 + p7 >= 0
 R300: 377 x1,7_32 - p1 + p7 <= 409
 R301: - 35 x1,7_35 - p1 + p7 >= 0
 R302: 377 x1,7_35 - p1 + p7 <= 412
 R303: - 42 x1,7_42 - p1 + p7 >= 0
 R304: 377 x1,7_42 - p1 + p7 <= 419
 R305: - 45 x1,7_45 - p1 + p7 >= 0
 R306: 377 x1,7_45 - p1 + p7 <= 422
 R307: - 69 x1,7_69 - p1 + p7 >= 0
 R308: 377 x1,7_69 - p1 + p7 <= 446
 R309: - 72 x1,7_72 - p1 + p7 >= 0
 R310: 377 x1,7_72 - p1 + p7 <= 449
 R311: p2 - p3 <= -1
 R312: - 2 x2,3_2 - p2 + p3 >= 0
 R313: 377 x2,3_2 - p2 + p3 <= 379
 R314: - 23 x2,3_23 - p2 + p3 >= 0
 R315: 377 x2,3_23 - p2 + p3 <= 400
 R316: - 28 x2,3_28 - p2 + p3 >= 0
 R317: 377 x2,3_28 - p2 + p3 <= 405
 R318: - 29 x2,3_29 - p2 + p3 >= 0
 R319: 377 x2,3_29 - p2 + p3 <= 406
 R320: - 32 x2,3_32 - p2 + p3 >= 0
 R321: 377 x2,3_32 - p2 + p3 <= 409
 R322: - 35 x2,3_35 - p2 + p3 >= 0
 R323: 377 x2,3_35 - p2 + p3 <= 412
 R324: - 42 x2,3_42 - p2 + p3 >= 0
 R325: 377 x2,3_42 - p2 + p3 <= 419
 R326: - 45 x2,3_45 - p2 + p3 >= 0
 R327: 377 x2,3_45 - p2 + p3 <= 422
 R328: - 69 x2,3_69 - p2 + p3 >= 0
 R329: 377 x2,3_69 - p2 + p3 <= 446
 R330: - 72 x2,3_72 - p2 + p3 >= 0
 R331: 377 x2,3_72 - p2 + p3 <= 449
 R332: p2 - p4 <= -1
 R333: - 2 x2,4_2 - p2 + p4 >= 0
 R334: 377 x2,4_2 - p2 + p4 <= 379
 R335: - 23 x2,4_23 - p2 + p4 >= 0
 R336: 377 x2,4_23 - p2 + p4 <= 400
 R337: - 28 x2,4_28 - p2 + p4 >= 0
 R338: 377 x2,4_28 - p2 + p4 <= 405
 R339: - 29 x2,4_29 - p2 + p4 >= 0
 R340: 377 x2,4_29 - p2 + p4 <= 406
 R341: - 32 x2,4_32 - p2 + p4 >= 0
 R342: 377 x2,4_32 - p2 + p4 <= 409
 R343: - 35 x2,4_35 - p2 + p4 >= 0
 R344: 377 x2,4_35 - p2 + p4 <= 412
 R345: - 42 x2,4_42 - p2 + p4 >= 0
 R346: 377 x2,4_42 - p2 + p4 <= 419
 R347: - 45 x2,4_45 - p2 + p4 >= 0
 R348: 377 x2,4_45 - p2 + p4 <= 422
 R349: - 69 x2,4_69 - p2 + p4 >= 0
 R350: 377 x2,4_69 - p2 + p4 <= 446
 R351: - 72 x2,4_72 - p2 + p4 >= 0
 R352: 377 x2,4_72 - p2 + p4 <= 449
 R353: p2 - p5 <= -1
 R354: - 2 x2,5_2 - p2 + p5 >= 0
 R355: 377 x2,5_2 - p2 + p5 <= 379
 R356: - 23 x2,5_23 - p2 + p5 >= 0
 R357: 377 x2,5_23 - p2 + p5 <= 400
 R358: - 28 x2,5_28 - p2 + p5 >= 0
 R359: 377 x2,5_28 - p2 + p5 <= 405
 R360: - 29 x2,5_29 - p2 + p5 >= 0
 R361: 377 x2,5_29 - p2 + p5 <= 406
 R362: - 32 x2,5_32 - p2 + p5 >= 0
 R363: 377 x2,5_32 - p2 + p5 <= 409
 R364: - 35 x2,5_35 - p2 + p5 >= 0
 R365: 377 x2,5_35 - p2 + p5 <= 412
 R366: - 42 x2,5_42 - p2 + p5 >= 0
 R367: 377 x2,5_42 - p2 + p5 <= 419
 R368: - 45 x2,5_45 - p2 + p5 >= 0
 R369: 377 x2,5_45 - p2 + p5 <= 422
 R370: - 69 x2,5_69 - p2 + p5 >= 0
 R371: 377 x2,5_69 - p2 + p5 <= 446
 R372: - 72 x2,5_72 - p2 + p5 >= 0
 R373: 377 x2,5_72 - p2 + p5 <= 449
 R374: p2 - p6 <= -1
 R375: - 2 x2,6_2 - p2 + p6 >= 0
 R376: 377 x2,6_2 - p2 + p6 <= 379
 R377: - 23 x2,6_23 - p2 + p6 >= 0
 R378: 377 x2,6_23 - p2 + p6 <= 400
 R379: - 28 x2,6_28 - p2 + p6 >= 0
 R380: 377 x2,6_28 - p2 + p6 <= 405
 R381: - 29 x2,6_29 - p2 + p6 >= 0
 R382: 377 x2,6_29 - p2 + p6 <= 406
 R383: - 32 x2,6_32 - p2 + p6 >= 0
 R384: 377 x2,6_32 - p2 + p6 <= 409
 R385: - 35 x2,6_35 - p2 + p6 >= 0
 R386: 377 x2,6_35 - p2 + p6 <= 412
 R387: - 42 x2,6_42 - p2 + p6 >= 0
 R388: 377 x2,6_42 - p2 + p6 <= 419
 R389: - 45 x2,6_45 - p2 + p6 >= 0
 R390: 377 x2,6_45 - p2 + p6 <= 422
 R391: - 69 x2,6_69 - p2 + p6 >= 0
 R392: 377 x2,6_69 - p2 + p6 <= 446
 R393: - 72 x2,6_72 - p2 + p6 >= 0
 R394: 377 x2,6_72 - p2 + p6 <= 449
 R395: p2 - p7 <= -1
 R396: - 2 x2,7_2 - p2 + p7 >= 0
 R397: 377 x2,7_2 - p2 + p7 <= 379
 R398: - 23 x2,7_23 - p2 + p7 >= 0
 R399: 377 x2,7_23 - p2 + p7 <= 400
 R400: - 28 x2,7_28 - p2 + p7 >= 0
 R401: 377 x2,7_28 - p2 + p7 <= 405
 R402: - 29 x2,7_29 - p2 + p7 >= 0
 R403: 377 x2,7_29 - p2 + p7 <= 406
 R404: - 32 x2,7_32 - p2 + p7 >= 0
 R405: 377 x2,7_32 - p2 + p7 <= 409
 R406: - 35 x2,7_35 - p2 + p7 >= 0
 R407: 377 x2,7_35 - p2 + p7 <= 412
 R408: - 42 x2,7_42 - p2 + p7 >= 0
 R409: 377 x2,7_42 - p2 + p7 <= 419
 R410: - 45 x2,7_45 - p2 + p7 >= 0
 R411: 377 x2,7_45 - p2 + p7 <= 422
 R412: - 69 x2,7_69 - p2 + p7 >= 0
 R413: 377 x2,7_69 - p2 + p7 <= 446
 R414: - 72 x2,7_72 - p2 + p7 >= 0
 R415: 377 x2,7_72 - p2 + p7 <= 449
 R416: p3 - p4 <= -1
 R417: - 2 x3,4_2 - p3 + p4 >= 0
 R418: 377 x3,4_2 - p3 + p4 <= 379
 R419: - 23 x3,4_23 - p3 + p4 >= 0
 R420: 377 x3,4_23 - p3 + p4 <= 400
 R421: - 28 x3,4_28 - p3 + p4 >= 0
 R422: 377 x3,4_28 - p3 + p4 <= 405
 R423: - 29 x3,4_29 - p3 + p4 >= 0
 R424: 377 x3,4_29 - p3 + p4 <= 406
 R425: - 32 x3,4_32 - p3 + p4 >= 0
 R426: 377 x3,4_32 - p3 + p4 <= 409
 R427: - 35 x3,4_35 - p3 + p4 >= 0
 R428: 377 x3,4_35 - p3 + p4 <= 412
 R429: - 42 x3,4_42 - p3 + p4 >= 0
 R430: 377 x3,4_42 - p3 + p4 <= 419
 R431: - 45 x3,4_45 - p3 + p4 >= 0
 R432: 377 x3,4_45 - p3 + p4 <= 422
 R433: - 69 x3,4_69 - p3 + p4 >= 0
 R434: 377 x3,4_69 - p3 + p4 <= 446
 R435: - 72 x3,4_72 - p3 + p4 >= 0
 R436: 377 x3,4_72 - p3 + p4 <= 449
 R437: p3 - p5 <= -1
 R438: - 2 x3,5_2 - p3 + p5 >= 0
 R439: 377 x3,5_2 - p3 + p5 <= 379
 R440: - 23 x3,5_23 - p3 + p5 >= 0
 R441: 377 x3,5_23 - p3 + p5 <= 400
 R442: - 28 x3,5_28 - p3 + p5 >= 0
 R443: 377 x3,5_28 - p3 + p5 <= 405
 R444: - 29 x3,5_29 - p3 + p5 >= 0
 R445: 377 x3,5_29 - p3 + p5 <= 406
 R446: - 32 x3,5_32 - p3 + p5 >= 0
 R447: 377 x3,5_32 - p3 + p5 <= 409
 R448: - 35 x3,5_35 - p3 + p5 >= 0
 R449: 377 x3,5_35 - p3 + p5 <= 412
 R450: - 42 x3,5_42 - p3 + p5 >= 0
 R451: 377 x3,5_42 - p3 + p5 <= 419
 R452: - 45 x3,5_45 - p3 + p5 >= 0
 R453: 377 x3,5_45 - p3 + p5 <= 422
 R454: - 69 x3,5_69 - p3 + p5 >= 0
 R455: 377 x3,5_69 - p3 + p5 <= 446
 R456: - 72 x3,5_72 - p3 + p5 >= 0
 R457: 377 x3,5_72 - p3 + p5 <= 449
 R458: p3 - p6 <= -1
 R459: - 2 x3,6_2 - p3 + p6 >= 0
 R460: 377 x3,6_2 - p3 + p6 <= 379
 R461: - 23 x3,6_23 - p3 + p6 >= 0
 R462: 377 x3,6_23 - p3 + p6 <= 400
 R463: - 28 x3,6_28 - p3 + p6 >= 0
 R464: 377 x3,6_28 - p3 + p6 <= 405
 R465: - 29 x3,6_29 - p3 + p6 >= 0
 R466: 377 x3,6_29 - p3 + p6 <= 406
 R467: - 32 x3,6_32 - p3 + p6 >= 0
 R468: 377 x3,6_32 - p3 + p6 <= 409
 R469: - 35 x3,6_35 - p3 + p6 >= 0
 R470: 377 x3,6_35 - p3 + p6 <= 412
 R471: - 42 x3,6_42 - p3 + p6 >= 0
 R472: 377 x3,6_42 - p3 + p6 <= 419
 R473: - 45 x3,6_45 - p3 + p6 >= 0
 R474: 377 x3,6_45 - p3 + p6 <= 422
 R475: - 69 x3,6_69 - p3 + p6 >= 0
 R476: 377 x3,6_69 - p3 + p6 <= 446
 R477: - 72 x3,6_72 - p3 + p6 >= 0
 R478: 377 x3,6_72 - p3 + p6 <= 449
 R479: p3 - p7 <= -1
 R480: - 2 x3,7_2 - p3 + p7 >= 0
 R481: 377 x3,7_2 - p3 + p7 <= 379
 R482: - 23 x3,7_23 - p3 + p7 >= 0
 R483: 377 x3,7_23 - p3 + p7 <= 400
 R484: - 28 x3,7_28 - p3 + p7 >= 0
 R485: 377 x3,7_28 - p3 + p7 <= 405
 R486: - 29 x3,7_29 - p3 + p7 >= 0
 R487: 377 x3,7_29 - p3 + p7 <= 406
 R488: - 32 x3,7_32 - p3 + p7 >= 0
 R489: 377 x3,7_32 - p3 + p7 <= 409
 R490: - 35 x3,7_35 - p3 + p7 >= 0
 R491: 377 x3,7_35 - p3 + p7 <= 412
 R492: - 42 x3,7_42 - p3 + p7 >= 0
 R493: 377 x3,7_42 - p3 + p7 <= 419
 R494: - 45 x3,7_45 - p3 + p7 >= 0
 R495: 377 x3,7_45 - p3 + p7 <= 422
 R496: - 69 x3,7_69 - p3 + p7 >= 0
 R497: 377 x3,7_69 - p3 + p7 <= 446
 R498: - 72 x3,7_72 - p3 + p7 >= 0
 R499: 377 x3,7_72 - p3 + p7 <= 449
 R500: p4 - p5 <= -1
 R501: - 2 x4,5_2 - p4 + p5 >= 0
 R502: 377 x4,5_2 - p4 + p5 <= 379
 R503: - 23 x4,5_23 - p4 + p5 >= 0
 R504: 377 x4,5_23 - p4 + p5 <= 400
 R505: - 28 x4,5_28 - p4 + p5 >= 0
 R506: 377 x4,5_28 - p4 + p5 <= 405
 R507: - 29 x4,5_29 - p4 + p5 >= 0
 R508: 377 x4,5_29 - p4 + p5 <= 406
 R509: - 32 x4,5_32 - p4 + p5 >= 0
 R510: 377 x4,5_32 - p4 + p5 <= 409
 R511: - 35 x4,5_35 - p4 + p5 >= 0
 R512: 377 x4,5_35 - p4 + p5 <= 412
 R513: - 42 x4,5_42 - p4 + p5 >= 0
 R514: 377 x4,5_42 - p4 + p5 <= 419
 R515: - 45 x4,5_45 - p4 + p5 >= 0
 R516: 377 x4,5_45 - p4 + p5 <= 422
 R517: - 69 x4,5_69 - p4 + p5 >= 0
 R518: 377 x4,5_69 - p4 + p5 <= 446
 R519: - 72 x4,5_72 - p4 + p5 >= 0
 R520: 377 x4,5_72 - p4 + p5 <= 449
 R521: p4 - p6 <= -1
 R522: - 2 x4,6_2 - p4 + p6 >= 0
 R523: 377 x4,6_2 - p4 + p6 <= 379
 R524: - 23 x4,6_23 - p4 + p6 >= 0
 R525: 377 x4,6_23 - p4 + p6 <= 400
 R526: - 28 x4,6_28 - p4 + p6 >= 0
 R527: 377 x4,6_28 - p4 + p6 <= 405
 R528: - 29 x4,6_29 - p4 + p6 >= 0
 R529: 377 x4,6_29 - p4 + p6 <= 406
 R530: - 32 x4,6_32 - p4 + p6 >= 0
 R531: 377 x4,6_32 - p4 + p6 <= 409
 R532: - 35 x4,6_35 - p4 + p6 >= 0
 R533: 377 x4,6_35 - p4 + p6 <= 412
 R534: - 42 x4,6_42 - p4 + p6 >= 0
 R535: 377 x4,6_42 - p4 + p6 <= 419
 R536: - 45 x4,6_45 - p4 + p6 >= 0
 R537: 377 x4,6_45 - p4 + p6 <= 422
 R538: - 69 x4,6_69 - p4 + p6 >= 0
 R539: 377 x4,6_69 - p4 + p6 <= 446
 R540: - 72 x4,6_72 - p4 + p6 >= 0
 R541: 377 x4,6_72 - p4 + p6 <= 449
 R542: p4 - p7 <= -1
 R543: - 2 x4,7_2 - p4 + p7 >= 0
 R544: 377 x4,7_2 - p4 + p7 <= 379
 R545: - 23 x4,7_23 - p4 + p7 >= 0
 R546: 377 x4,7_23 - p4 + p7 <= 400
 R547: - 28 x4,7_28 - p4 + p7 >= 0
 R548: 377 x4,7_28 - p4 + p7 <= 405
 R549: - 29 x4,7_29 - p4 + p7 >= 0
 R550: 377 x4,7_29 - p4 + p7 <= 406
 R551: - 32 x4,7_32 - p4 + p7 >= 0
 R552: 377 x4,7_32 - p4 + p7 <= 409
 R553: - 35 x4,7_35 - p4 + p7 >= 0
 R554: 377 x4,7_35 - p4 + p7 <= 412
 R555: - 42 x4,7_42 - p4 + p7 >= 0
 R556: 377 x4,7_42 - p4 + p7 <= 419
 R557: - 45 x4,7_45 - p4 + p7 >= 0
 R558: 377 x4,7_45 - p4 + p7 <= 422
 R559: - 69 x4,7_69 - p4 + p7 >= 0
 R560: 377 x4,7_69 - p4 + p7 <= 446
 R561: - 72 x4,7_72 - p4 + p7 >= 0
 R562: 377 x4,7_72 - p4 + p7 <= 449
 R563: p5 - p6 <= -1
 R564: - 2 x5,6_2 - p5 + p6 >= 0
 R565: 377 x5,6_2 - p5 + p6 <= 379
 R566: - 23 x5,6_23 - p5 + p6 >= 0
 R567: 377 x5,6_23 - p5 + p6 <= 400
 R568: - 28 x5,6_28 - p5 + p6 >= 0
 R569: 377 x5,6_28 - p5 + p6 <= 405
 R570: - 29 x5,6_29 - p5 + p6 >= 0
 R571: 377 x5,6_29 - p5 + p6 <= 406
 R572: - 32 x5,6_32 - p5 + p6 >= 0
 R573: 377 x5,6_32 - p5 + p6 <= 409
 R574: - 35 x5,6_35 - p5 + p6 >= 0
 R575: 377 x5,6_35 - p5 + p6 <= 412
 R576: - 42 x5,6_42 - p5 + p6 >= 0
 R577: 377 x5,6_42 - p5 + p6 <= 419
 R578: - 45 x5,6_45 - p5 + p6 >= 0
 R579: 377 x5,6_45 - p5 + p6 <= 422
 R580: - 69 x5,6_69 - p5 + p6 >= 0
 R581: 377 x5,6_69 - p5 + p6 <= 446
 R582: - 72 x5,6_72 - p5 + p6 >= 0
 R583: 377 x5,6_72 - p5 + p6 <= 449
 R584: p5 - p7 <= -1
 R585: - 2 x5,7_2 - p5 + p7 >= 0
 R586: 377 x5,7_2 - p5 + p7 <= 379
 R587: - 23 x5,7_23 - p5 + p7 >= 0
 R588: 377 x5,7_23 - p5 + p7 <= 400
 R589: - 28 x5,7_28 - p5 + p7 >= 0
 R590: 377 x5,7_28 - p5 + p7 <= 405
 R591: - 29 x5,7_29 - p5 + p7 >= 0
 R592: 377 x5,7_29 - p5 + p7 <= 406
 R593: - 32 x5,7_32 - p5 + p7 >= 0
 R594: 377 x5,7_32 - p5 + p7 <= 409
 R595: - 35 x5,7_35 - p5 + p7 >= 0
 R596: 377 x5,7_35 - p5 + p7 <= 412
 R597: - 42 x5,7_42 - p5 + p7 >= 0
 R598: 377 x5,7_42 - p5 + p7 <= 419
 R599: - 45 x5,7_45 - p5 + p7 >= 0
 R600: 377 x5,7_45 - p5 + p7 <= 422
 R601: - 69 x5,7_69 - p5 + p7 >= 0
 R602: 377 x5,7_69 - p5 + p7 <= 446
 R603: - 72 x5,7_72 - p5 + p7 >= 0
 R604: 377 x5,7_72 - p5 + p7 <= 449
 R605: p6 - p7 <= -1
 R606: - 2 x6,7_2 - p6 + p7 >= 0
 R607: 377 x6,7_2 - p6 + p7 <= 379
 R608: - 23 x6,7_23 - p6 + p7 >= 0
 R609: 377 x6,7_23 - p6 + p7 <= 400
 R610: - 28 x6,7_28 - p6 + p7 >= 0
 R611: 377 x6,7_28 - p6 + p7 <= 405
 R612: - 29 x6,7_29 - p6 + p7 >= 0
 R613: 377 x6,7_29 - p6 + p7 <= 406
 R614: - 32 x6,7_32 - p6 + p7 >= 0
 R615: 377 x6,7_32 - p6 + p7 <= 409
 R616: - 35 x6,7_35 - p6 + p7 >= 0
 R617: 377 x6,7_35 - p6 + p7 <= 412
 R618: - 42 x6,7_42 - p6 + p7 >= 0
 R619: 377 x6,7_42 - p6 + p7 <= 419
 R620: - 45 x6,7_45 - p6 + p7 >= 0
 R621: 377 x6,7_45 - p6 + p7 <= 422
 R622: - 69 x6,7_69 - p6 + p7 >= 0
 R623: 377 x6,7_69 - p6 + p7 <= 446
 R624: - 72 x6,7_72 - p6 + p7 >= 0
 R625: 377 x6,7_72 - p6 + p7 <= 449
Bounds
Binaries
 x0,1_2 x0,1_23 x0,1_28 x0,1_29 x0,1_32 x0,1_35 x0,1_42 x0,1_45 x0,1_69
 x0,1_72 x0,2_2 x0,2_23 x0,2_28 x0,2_29 x0,2_32 x0,2_35 x0,2_42 x0,2_45
 x0,2_69 x0,2_72 x0,3_2 x0,3_23 x0,3_28 x0,3_29 x0,3_32 x0,3_35 x0,3_42
 x0,3_45 x0,3_69 x0,3_72 x0,4_2 x0,4_23 x0,4_28 x0,4_29 x0,4_32 x0,4_35
 x0,4_42 x0,4_45 x0,4_69 x0,4_72 x0,5_2 x0,5_23 x0,5_28 x0,5_29 x0,5_32
 x0,5_35 x0,5_42 x0,5_45 x0,5_69 x0,5_72 x0,6_2 x0,6_23 x0,6_28 x0,6_29
 x0,6_32 x0,6_35 x0,6_42 x0,6_45 x0,6_69 x0,6_72 x0,7_2 x0,7_23 x0,7_28
 x0,7_29 x0,7_32 x0,7_35 x0,7_42 x0,7_45 x0,7_69 x0,7_72 x1,2_2 x1,2_23
 x1,2_28 x1,2_29 x1,2_32 x1,2_35 x1,2_42 x1,2_45 x1,2_69 x1,2_72 x1,3_2
 x1,3_23 x1,3_28 x1,3_29 x1,3_32 x1,3_35 x1,3_42 x1,3_45 x1,3_69 x1,3_72
 x1,4_2 x1,4_23 x1,4_28 x1,4_29 x1,4_32 x1,4_35 x1,4_42 x1,4_45 x1,4_69
 x1,4_72 x1,5_2 x1,5_23 x1,5_28 x1,5_29 x1,5_32 x1,5_35 x1,5_42 x1,5_45
 x1,5_69 x1,5_72 x1,6_2 x1,6_23 x1,6_28 x1,6_29 x1,6_32 x1,6_35 x1,6_42
 x1,6_45 x1,6_69 x1,6_72 x1,7_2 x1,7_23 x1,7_28 x1,7_29 x1,7_32 x1,7_35
 x1,7_42 x1,7_45 x1,7_69 x1,7_72 x2,3_2 x2,3_23 x2,3_28 x2,3_29 x2,3_32
 x2,3_35 x2,3_42 x2,3_45 x2,3_69 x2,3_72 x2,4_2 x2,4_23 x2,4_28 x2,4_29
 x2,4_32 x2,4_35 x2,4_42 x2,4_45 x2,4_69 x2,4_72 x2,5_2 x2,5_23 x2,5_28
 x2,5_29 x2,5_32 x2,5_35 x2,5_42 x2,5_45 x2,5_69 x2,5_72 x2,6_2 x2,6_23
 x2,6_28 x2,6_29 x2,6_32 x2,6_35 x2,6_42 x2,6_45 x2,6_69 x2,6_72 x2,7_2
 x2,7_23 x2,7_28 x2,7_29 x2,7_32 x2,7_35 x2,7_42 x2,7_45 x2,7_69 x2,7_72
 x3,4_2 x3,4_23 x3,4_28 x3,4_29 x3,4_32 x3,4_35 x3,4_42 x3,4_45 x3,4_69
 x3,4_72 x3,5_2 x3,5_23 x3,5_28 x3,5_29 x3,5_32 x3,5_35 x3,5_42 x3,5_45
 x3,5_69 x3,5_72 x3,6_2 x3,6_23 x3,6_28 x3,6_29 x3,6_32 x3,6_35 x3,6_42
 x3,6_45 x3,6_69 x3,6_72 x3,7_2 x3,7_23 x3,7_28 x3,7_29 x3,7_32 x3,7_35
 x3,7_42 x3,7_45 x3,7_69 x3,7_72 x4,5_2 x4,5_23 x4,5_28 x4,5_29 x4,5_32
 x4,5_35 x4,5_42 x4,5_45 x4,5_69 x4,5_72 x4,6_2 x4,6_23 x4,6_28 x4,6_29
 x4,6_32 x4,6_35 x4,6_42 x4,6_45 x4,6_69 x4,6_72 x4,7_2 x4,7_23 x4,7_28
 x4,7_29 x4,7_32 x4,7_35 x4,7_42 x4,7_45 x4,7_69 x4,7_72 x5,6_2 x5,6_23
 x5,6_28 x5,6_29 x5,6_32 x5,6_35 x5,6_42 x5,6_45 x5,6_69 x5,6_72 x5,7_2
 x5,7_23 x5,7_28 x5,7_29 x5,7_32 x5,7_35 x5,7_42 x5,7_45 x5,7_69 x5,7_72
 x6,7_2 x6,7_23 x6,7_28 x6,7_29 x6,7_32 x6,7_35 x6,7_42 x6,7_45 x6,7_69
 x6,7_72
Generals
 p0 p1 p2 p3 p4 p5 p6 p7
End
